c exact tree decomposition computed by Tamaki's 2017 exact solver
s td 60 9 69
b 1 1 2
b 2 4 5 8 9
b 3 9 19
b 4 9 18 20 21 23
b 5 9 22 23
b 6 12 17 25 29 30 31
b 7 12 17 25 26 30 31
b 8 12 17 25 26 32
b 9 17 33
b 10 17 34
b 11 17 28 31 36
b 12 18 39 40
b 13 18 40 41
b 14 23 42
b 15 23 43
b 16 25 44
b 17 28 47
b 18 28 48
b 19 38 49 51
b 20 38 53 55
b 21 38 56
b 22 38 57
b 23 38 58
b 24 38 49 59
b 25 45 61
b 26 45 62 64
b 27 45 63 64 65
b 28 65 67
b 29 65 68
b 30 5 11 14
b 31 6 12 13 14 15 16 17
b 32 28 38 46
b 33 38 49 53 54
b 34 38 49 52 54
b 35 45 52 60
b 36 45 63 65 66
b 37 45 50 65 66
b 38 35 65 69
b 39 2 3 4 6
b 40 3 4 7 12 14 16 17 65
b 41 4 7 9 12 14 16 17 26 65
b 42 4 5 7 9 12 14 17 26
b 43 4 5 10 17 26
b 44 7 9 12 16 17 23 26 65
b 45 7 9 12 16 17 18 23 26
b 46 9 12 16 18 20 23 26
b 47 9 12 17 23 25 26 37 65
b 48 12 17 25 26 37 38 65
b 49 12 17 25 26 31 37 38
b 50 25 37 38 45 65
b 51 37 38 45 50 65
b 52 3 4 6 12 14 16 17 65
b 53 6 12 14 16 17 27 65
b 54 6 12 13 14 16 17 27
b 55 9 23 24 37
b 56 12 17 28 31 38
b 57 17 27 35 65
b 58 38 45 49 52
b 59 37 38 45 49 50
b 60 65
1 39
2 42
3 41
4 46
5 44
6 7
7 49
8 47
9 40
10 40
11 56
12 13
13 45
14 44
15 44
16 47
17 56
18 56
19 58
20 33
21 48
22 48
23 48
24 58
25 50
26 27
27 36
28 60
29 60
30 42
31 54
32 56
33 34
34 58
35 58
36 37
37 51
38 57
39 52
40 60
40 41
40 52
41 42
41 44
42 43
44 45
44 47
45 46
47 55
47 48
48 49
48 50
49 56
50 51
51 59
52 53
53 54
53 57
58 59
